Gurobi 12.0.3:   lim:time = 14400

  mip:bestbound = 1

Set parameter LogToConsole to value 1

  tech:outlev = 1

Set parameter Cuts to value 3

  cut:cuts = 3

Set parameter Presolve to value 2

  pre:solve = 2

Set parameter MIPFocus to value 2

  mip:focus = 2

Set parameter Symmetry to value 2

  mip:symmetry = 2

Set parameter InfUnbdInfo to value 1

Gurobi Optimizer version 12.0.3 build v12.0.3rc0 (win64 - Windows 11+.0 (26200.2))



CPU model: 13th Gen Intel(R) Core(TM) i7-13700K, instruction set [SSE2|AVX|AVX2]

Thread count: 16 physical cores, 24 logical processors, using up to 24 threads



Non-default parameters:

TimeLimit  14400

MIPFocus  2

Symmetry  2

Cuts  3

InfUnbdInfo  1

Presolve  2



Optimize a model with 466 rows, 972 columns and 5584 nonzeros

Model fingerprint: 0x8462dcaf

Model has 2 quadratic objective terms

Model has 6 quadratic constraints

Variable types: 38 continuous, 934 integer (0 binary)

Coefficient statistics:

  Matrix range     [1e+00, 1e+05]

  QMatrix range    [1e+00, 1e+00]

  QLMatrix range   [1e+00, 1e+01]

  Objective range  [4e+00, 1e+02]

  QObjective range [2e+00, 2e+00]

  Bounds range     [1e+00, 1e+02]

  RHS range        [1e+00, 1e+05]

  QRHS range       [1e+02, 1e+02]

Presolve removed 48 rows and 83 columns

Presolve time: 0.12s

Presolved: 1023 rows, 1485 columns, 8772 nonzeros

Variable types: 126 continuous, 1359 integer (1191 binary)

Root relaxation presolve removed 20 rows and 3 columns

Root relaxation presolved: 673 rows, 1154 columns, 12824 nonzeros





Root relaxation: objective 8.778746e+01, 178 iterations, 0.02 seconds (0.02 work units)



    Nodes    |    Current Node    |     Objective Bounds      |     Work

 Expl Unexpl |  Obj  Depth IntInf | Incumbent    BestBd   Gap | It/Node Time



     0     0   87.78746    0   42          -   87.78746      -     -    0s

H    0     0                     584.4700000   87.78746  85.0%     -    0s

     0     0  130.97601    0   43  584.47000  130.97601  77.6%     -    0s

     0     0  130.97601    0   58  584.47000  130.97601  77.6%     -    0s

     0     0  142.62976    0   76  584.47000  142.62976  75.6%     -    0s

H    0     0                     501.9400000  142.62976  71.6%     -    0s

H    0     0                     492.2500000  142.85000  71.0%     -    0s

H    0     0                     472.6700000  142.85000  69.8%     -    0s

H    0     0                     463.6700000  142.85000  69.2%     -    0s

H    0     0                     454.9600000  142.85000  68.6%     -    0s

     0     0  142.85475    0   44  454.96000  142.85475  68.6%     -    0s

     0     0  142.85475    0   44  454.96000  142.85475  68.6%     -    0s

H    0     0                     432.3200000  142.85475  67.0%     -    0s

H    0     0                     417.5700000  142.85475  65.8%     -    0s

H    0     0                     409.5600000  142.85558  65.1%     -    0s

H    0     0                     395.8400000  142.85558  63.9%     -    0s

H    0     0                     394.1200000  142.85558  63.8%     -    0s

H    0     0                     381.8900000  142.85558  62.6%     -    0s

     0     0  142.87252    0   46  381.89000  142.87252  62.6%     -    0s

     0     0  142.87252    0   46  381.89000  142.87252  62.6%     -    0s

     0     0  155.25000    0   38  381.89000  155.25000  59.3%     -    1s

     0     0  156.47200    0   43  381.89000  156.47200  59.0%     -    1s

H    0     0                     374.4000000  212.37333  43.3%     -    1s

     0     0  212.37333    0   56  374.40000  212.37333  43.3%     -    1s

     0     0  212.62000    0   59  374.40000  212.62000  43.2%     -    1s

     0     0  212.87263    0   78  374.40000  212.87263  43.1%     -    1s

     0     0  212.87263    0   74  374.40000  212.87263  43.1%     -    1s

     0     0  219.04274    0   86  374.40000  219.04274  41.5%     -    1s

     0     0  219.04274    0   86  374.40000  219.04274  41.5%     -    1s

     0     2  223.21981    0   86  374.40000  223.21981  40.4%     -    1s

H   35    48                     362.4700000  233.43667  35.6%  57.7    2s

H  137   136                     347.8800000  233.43667  32.9%  32.9    2s

H  216   200                     326.1500000  233.43667  28.4%  27.8    2s

H 2452  1465                     320.4500000  247.60233  22.7%  19.4    2s

  3756  1985  291.90944   24   75  320.45000  256.62293  19.9%  19.9    5s

 25178  3341 infeasible   47       320.45000  288.79050  9.88%  21.5   10s

 49070  1054     cutoff   46       320.45000  304.63737  4.93%  20.8   15s



Cutting planes:

  Learned: 14

  Gomory: 18

  Lift-and-project: 1

  Cover: 43

  Implied bound: 60

  Projected implied bound: 7

  Clique: 62

  MIR: 32

  Mixing: 15

  StrongCG: 9

  Flow cover: 216

  GUB cover: 3

  Inf proof: 29

  Zero half: 175

  Mod-K: 2

  RLT: 24

  Relax-and-lift: 56



Explored 52739 nodes (1078098 simplex iterations) in 16.02 seconds (14.63 work units)

Thread count was 24 (of 24 available processors)



Solution count 10: 320.45 320.45 326.15 ... 409.56



Optimal solution found (tolerance 1.00e-04)

Best objective 3.204500000000e+02, best bound 3.204500000000e+02, gap 0.0000%



AMPL MP initial flat model has 972 variables (0 integer, 934 binary);

Objectives: 1 quadratic; 

Constraints:  466 linear; 6 quadratic;



AMPL MP final model has 972 variables (0 integer, 934 binary);

Objectives: 1 quadratic; 

Constraints:  466 linear; 6 quadratic;





-----RESULTS INFO-----
running_time:  16.109
TC.best_bound:  320.45
TC:  320.45
MIP Gap (%):  0
=== Vehicle Routes ===
Vehicle 1: 0 → 4
Vehicle 1: 1 → 20
Vehicle 1: 2 → 1
Vehicle 1: 4 → 16
Vehicle 1: 13 → 2
Vehicle 1: 16 → 13
Vehicle 2: 0 → 18
Vehicle 2: 3 → 20
Vehicle 2: 18 → 3
Vehicle 3: 0 → 20
Vehicle 4: 0 → 20

=== Full Vehicle Routes ===
Vehicle 1: 0 → 4 → 16 → 13 → 2 → 1 → 0 (91<100)
Vehicle 2: 0 → 18 → 3 → 0 (93<100)
Vehicle 3: 0 → 0 (0<100)
Vehicle 4: 0 → 0 (0<100)
Arc used by MRT line: y variables:
Customer assigment to PL: u variables:
5 13
6 16
7 16
8 18
9 18
10 18
11 16
12 18
Node is served by regular vehicle: g variables:
1
2
3
4
13
16
18
Customer assigment to Home delivery: gm variables:
1
2
3
4
Node total demands: ntd variables:
1 13 1
2 12 1
3 13 1
4 12 1
9 0 0
10 0 0
11 0 0
12 0 0
19 0 0
13 12 1
14 0 0
15 0 0
16 42 1
17 0 0
18 80 1
Customer's demand delivered to PL: l variables:
5
6
7
8
9
10
11
12
Lockers load <= capacity:
0 <= 73
12 <= 85
0 <= 81
0 <= 96
42 <= 74
0 <= 82
80 <= 96
